Iteration #1
Total number of hole bits is 512
Sketch file is flowlets_equivalent_10_canonicalizer_equivalent_0_pred_raw_stateless_alu_4_5_codegen_iteration_1.sk
Synthesis succeeded with 2 bits, proceeding to verification.
Verification failed.
Use returned counterexamples {'pkt_0': 1, 'pkt_1': 0, 'pkt_3': 0, 'pkt_2': 827} {'state_group_0_state_0': 2, 'state_group_1_state_0': 0}
Iteration #2
Total number of hole bits is 512
Sketch file is flowlets_equivalent_10_canonicalizer_equivalent_0_pred_raw_stateless_alu_4_5_codegen_iteration_2.sk
Synthesis succeeded with 2 bits, proceeding to verification.
Verification failed.
Use returned counterexamples {'pkt_0': 0, 'pkt_1': 0, 'pkt_3': 0, 'pkt_2': 4} {'state_group_0_state_0': 1, 'state_group_1_state_0': 1}
Iteration #3
Total number of hole bits is 512
Sketch file is flowlets_equivalent_10_canonicalizer_equivalent_0_pred_raw_stateless_alu_4_5_codegen_iteration_3.sk
Synthesis succeeded with 2 bits, proceeding to verification.
flowlets_equivalent_10_canonicalizer_equivalent_0_pred_raw_stateless_alu_4_5_verify_iter_3.sk passed syntax check. 
Failed to generate counterexamples, z3 returned unsat
Compilation succeeded. Hole value assignments are following:
int flowlets_equivalent_10_canonicalizer_equivalent_0_pred_raw_stateless_alu_4_5_stateful_alu_2_1_Opt_0_global = 0
int flowlets_equivalent_10_canonicalizer_equivalent_0_pred_raw_stateless_alu_4_5_stateful_alu_1_0_Opt_1_global = 0
int flowlets_equivalent_10_canonicalizer_equivalent_0_pred_raw_stateless_alu_4_5_stateless_alu_0_4_opcode = 1
int flowlets_equivalent_10_canonicalizer_equivalent_0_pred_raw_stateless_alu_4_5_output_mux_phv_0_0_ctrl = 2
int flowlets_equivalent_10_canonicalizer_equivalent_0_pred_raw_stateless_alu_4_5_stateful_operand_mux_1_0_1_ctrl = 6
int flowlets_equivalent_10_canonicalizer_equivalent_0_pred_raw_stateless_alu_4_5_stateful_alu_0_0_Mux3_0_global = 3
int flowlets_equivalent_10_canonicalizer_equivalent_0_pred_raw_stateless_alu_4_5_output_mux_phv_0_3_ctrl = 3
int flowlets_equivalent_10_canonicalizer_equivalent_0_pred_raw_stateless_alu_4_5_stateless_alu_1_1_opcode = 4
int flowlets_equivalent_10_canonicalizer_equivalent_0_pred_raw_stateless_alu_4_5_stateful_operand_mux_1_1_1_ctrl = 1
int flowlets_equivalent_10_canonicalizer_equivalent_0_pred_raw_stateless_alu_4_5_stateless_alu_0_4_mux3_ctrl = 1
int flowlets_equivalent_10_canonicalizer_equivalent_0_pred_raw_stateless_alu_4_5_stateless_alu_0_0_immediate = 2
int flowlets_equivalent_10_canonicalizer_equivalent_0_pred_raw_stateless_alu_4_5_stateless_alu_0_1_mux2_ctrl = 2
int flowlets_equivalent_10_canonicalizer_equivalent_0_pred_raw_stateless_alu_4_5_stateless_alu_3_3_immediate = 3
int flowlets_equivalent_10_canonicalizer_equivalent_0_pred_raw_stateless_alu_4_5_stateless_alu_3_0_mux2_ctrl = 5
int flowlets_equivalent_10_canonicalizer_equivalent_0_pred_raw_stateless_alu_4_5_output_mux_phv_3_3_ctrl = 2
int flowlets_equivalent_10_canonicalizer_equivalent_0_pred_raw_stateless_alu_4_5_stateful_alu_3_1_Mux3_1_global = 2
int flowlets_equivalent_10_canonicalizer_equivalent_0_pred_raw_stateless_alu_4_5_stateless_alu_2_1_mux2_ctrl = 6
int flowlets_equivalent_10_canonicalizer_equivalent_0_pred_raw_stateless_alu_4_5_stateless_alu_3_0_opcode = 4
int flowlets_equivalent_10_canonicalizer_equivalent_0_pred_raw_stateless_alu_4_5_stateless_alu_1_4_mux2_ctrl = 2
int flowlets_equivalent_10_canonicalizer_equivalent_0_pred_raw_stateless_alu_4_5_stateless_alu_0_0_mux2_ctrl = 1
int flowlets_equivalent_10_canonicalizer_equivalent_0_pred_raw_stateless_alu_4_5_output_mux_phv_3_2_ctrl = 2
int flowlets_equivalent_10_canonicalizer_equivalent_0_pred_raw_stateless_alu_4_5_stateless_alu_0_1_mux3_ctrl = 2
int flowlets_equivalent_10_canonicalizer_equivalent_0_pred_raw_stateless_alu_4_5_stateless_alu_1_2_mux1_ctrl = 0
int flowlets_equivalent_10_canonicalizer_equivalent_0_pred_raw_stateless_alu_4_5_stateless_alu_0_1_mux1_ctrl = 0
int flowlets_equivalent_10_canonicalizer_equivalent_0_pred_raw_stateless_alu_4_5_stateful_alu_2_0_rel_op_0_global = 2
int flowlets_equivalent_10_canonicalizer_equivalent_0_pred_raw_stateless_alu_4_5_stateless_alu_1_1_mux1_ctrl = 4
int flowlets_equivalent_10_canonicalizer_equivalent_0_pred_raw_stateless_alu_4_5_stateless_alu_1_3_immediate = 2
int flowlets_equivalent_10_canonicalizer_equivalent_0_pred_raw_stateless_alu_4_5_stateless_alu_0_2_opcode = 5
int flowlets_equivalent_10_canonicalizer_equivalent_0_pred_raw_stateless_alu_4_5_stateless_alu_0_3_mux3_ctrl = 3
int flowlets_equivalent_10_canonicalizer_equivalent_0_pred_raw_stateless_alu_4_5_stateful_alu_2_0_const_0_global = 2
int flowlets_equivalent_10_canonicalizer_equivalent_0_pred_raw_stateless_alu_4_5_stateful_alu_2_0_Opt_0_global = 1
int flowlets_equivalent_10_canonicalizer_equivalent_0_pred_raw_stateless_alu_4_5_stateful_alu_3_1_rel_op_0_global = 3
int flowlets_equivalent_10_canonicalizer_equivalent_0_pred_raw_stateless_alu_4_5_salu_config_2_1 = 0
int flowlets_equivalent_10_canonicalizer_equivalent_0_pred_raw_stateless_alu_4_5_stateless_alu_2_3_mux3_ctrl = 4
int flowlets_equivalent_10_canonicalizer_equivalent_0_pred_raw_stateless_alu_4_5_stateful_alu_3_0_rel_op_0_global = 0
int flowlets_equivalent_10_canonicalizer_equivalent_0_pred_raw_stateless_alu_4_5_stateless_alu_1_1_mux3_ctrl = 4
int flowlets_equivalent_10_canonicalizer_equivalent_0_pred_raw_stateless_alu_4_5_output_mux_phv_1_1_ctrl = 2
int flowlets_equivalent_10_canonicalizer_equivalent_0_pred_raw_stateless_alu_4_5_stateless_alu_3_0_mux1_ctrl = 2
int flowlets_equivalent_10_canonicalizer_equivalent_0_pred_raw_stateless_alu_4_5_output_mux_phv_0_2_ctrl = 2
int flowlets_equivalent_10_canonicalizer_equivalent_0_pred_raw_stateless_alu_4_5_stateful_alu_3_0_const_0_global = 3
int flowlets_equivalent_10_canonicalizer_equivalent_0_pred_raw_stateless_alu_4_5_stateful_alu_0_1_Mux3_1_global = 1
int flowlets_equivalent_10_canonicalizer_equivalent_0_pred_raw_stateless_alu_4_5_stateful_alu_0_0_const_0_global = 1
int flowlets_equivalent_10_canonicalizer_equivalent_0_pred_raw_stateless_alu_4_5_output_mux_phv_2_4_ctrl = 3
int flowlets_equivalent_10_canonicalizer_equivalent_0_pred_raw_stateless_alu_4_5_stateless_alu_2_4_opcode = 1
int flowlets_equivalent_10_canonicalizer_equivalent_0_pred_raw_stateless_alu_4_5_stateful_operand_mux_3_0_0_ctrl = 4
int flowlets_equivalent_10_canonicalizer_equivalent_0_pred_raw_stateless_alu_4_5_stateless_alu_1_3_mux3_ctrl = 0
int flowlets_equivalent_10_canonicalizer_equivalent_0_pred_raw_stateless_alu_4_5_stateful_alu_1_1_const_0_global = 1
int flowlets_equivalent_10_canonicalizer_equivalent_0_pred_raw_stateless_alu_4_5_stateful_alu_3_1_Mux3_0_global = 1
int flowlets_equivalent_10_canonicalizer_equivalent_0_pred_raw_stateless_alu_4_5_stateful_operand_mux_0_1_0_ctrl = 2
int flowlets_equivalent_10_canonicalizer_equivalent_0_pred_raw_stateless_alu_4_5_stateful_operand_mux_3_1_0_ctrl = 1
int flowlets_equivalent_10_canonicalizer_equivalent_0_pred_raw_stateless_alu_4_5_stateful_alu_2_0_const_1_global = 1
int flowlets_equivalent_10_canonicalizer_equivalent_0_pred_raw_stateless_alu_4_5_stateful_alu_1_1_Opt_0_global = 1
int flowlets_equivalent_10_canonicalizer_equivalent_0_pred_raw_stateless_alu_4_5_stateless_alu_0_4_immediate = 1
int flowlets_equivalent_10_canonicalizer_equivalent_0_pred_raw_stateless_alu_4_5_stateful_alu_2_0_Mux3_0_global = 0
int flowlets_equivalent_10_canonicalizer_equivalent_0_pred_raw_stateless_alu_4_5_stateless_alu_3_2_mux1_ctrl = 4
int flowlets_equivalent_10_canonicalizer_equivalent_0_pred_raw_stateless_alu_4_5_output_mux_phv_2_0_ctrl = 2
int flowlets_equivalent_10_canonicalizer_equivalent_0_pred_raw_stateless_alu_4_5_stateless_alu_2_3_immediate = 0
int flowlets_equivalent_10_canonicalizer_equivalent_0_pred_raw_stateless_alu_4_5_stateful_alu_0_0_Opt_1_global = 0
int flowlets_equivalent_10_canonicalizer_equivalent_0_pred_raw_stateless_alu_4_5_output_mux_phv_1_4_ctrl = 2
int flowlets_equivalent_10_canonicalizer_equivalent_0_pred_raw_stateless_alu_4_5_stateless_alu_1_1_immediate = 2
int flowlets_equivalent_10_canonicalizer_equivalent_0_pred_raw_stateless_alu_4_5_stateful_operand_mux_0_1_1_ctrl = 2
int flowlets_equivalent_10_canonicalizer_equivalent_0_pred_raw_stateless_alu_4_5_stateless_alu_1_3_mux1_ctrl = 0
int flowlets_equivalent_10_canonicalizer_equivalent_0_pred_raw_stateless_alu_4_5_salu_config_3_0 = 0
int flowlets_equivalent_10_canonicalizer_equivalent_0_pred_raw_stateless_alu_4_5_stateless_alu_3_4_mux2_ctrl = 0
int flowlets_equivalent_10_canonicalizer_equivalent_0_pred_raw_stateless_alu_4_5_stateless_alu_3_0_immediate = 0
int flowlets_equivalent_10_canonicalizer_equivalent_0_pred_raw_stateless_alu_4_5_stateless_alu_3_4_immediate = 0
int flowlets_equivalent_10_canonicalizer_equivalent_0_pred_raw_stateless_alu_4_5_stateless_alu_1_4_mux3_ctrl = 1
int flowlets_equivalent_10_canonicalizer_equivalent_0_pred_raw_stateless_alu_4_5_stateless_alu_3_4_opcode = 1
int flowlets_equivalent_10_canonicalizer_equivalent_0_pred_raw_stateless_alu_4_5_stateful_alu_1_0_const_0_global = 3
int flowlets_equivalent_10_canonicalizer_equivalent_0_pred_raw_stateless_alu_4_5_stateless_alu_3_3_mux3_ctrl = 1
int flowlets_equivalent_10_canonicalizer_equivalent_0_pred_raw_stateless_alu_4_5_stateless_alu_0_1_immediate = 3
int flowlets_equivalent_10_canonicalizer_equivalent_0_pred_raw_stateless_alu_4_5_stateless_alu_2_2_mux3_ctrl = 0
int flowlets_equivalent_10_canonicalizer_equivalent_0_pred_raw_stateless_alu_4_5_salu_config_1_1 = 0
int flowlets_equivalent_10_canonicalizer_equivalent_0_pred_raw_stateless_alu_4_5_stateless_alu_0_3_mux2_ctrl = 6
int flowlets_equivalent_10_canonicalizer_equivalent_0_pred_raw_stateless_alu_4_5_stateful_alu_3_0_Mux3_0_global = 0
int flowlets_equivalent_10_canonicalizer_equivalent_0_pred_raw_stateless_alu_4_5_salu_config_3_1 = 0
int flowlets_equivalent_10_canonicalizer_equivalent_0_pred_raw_stateless_alu_4_5_output_mux_phv_0_1_ctrl = 1
int flowlets_equivalent_10_canonicalizer_equivalent_0_pred_raw_stateless_alu_4_5_stateless_alu_1_2_mux3_ctrl = 1
int flowlets_equivalent_10_canonicalizer_equivalent_0_pred_raw_stateless_alu_4_5_stateless_alu_1_3_mux2_ctrl = 3
int flowlets_equivalent_10_canonicalizer_equivalent_0_pred_raw_stateless_alu_4_5_stateful_alu_1_1_Mux3_0_global = 2
int flowlets_equivalent_10_canonicalizer_equivalent_0_pred_raw_stateless_alu_4_5_stateless_alu_3_1_mux1_ctrl = 4
int flowlets_equivalent_10_canonicalizer_equivalent_0_pred_raw_stateless_alu_4_5_stateful_operand_mux_2_0_1_ctrl = 0
int flowlets_equivalent_10_canonicalizer_equivalent_0_pred_raw_stateless_alu_4_5_stateful_alu_0_1_const_0_global = 2
int flowlets_equivalent_10_canonicalizer_equivalent_0_pred_raw_stateless_alu_4_5_stateful_operand_mux_1_0_0_ctrl = 3
int flowlets_equivalent_10_canonicalizer_equivalent_0_pred_raw_stateless_alu_4_5_stateless_alu_0_0_mux1_ctrl = 1
int flowlets_equivalent_10_canonicalizer_equivalent_0_pred_raw_stateless_alu_4_5_stateful_operand_mux_1_1_0_ctrl = 2
int flowlets_equivalent_10_canonicalizer_equivalent_0_pred_raw_stateless_alu_4_5_stateless_alu_0_4_mux1_ctrl = 2
int flowlets_equivalent_10_canonicalizer_equivalent_0_pred_raw_stateless_alu_4_5_output_mux_phv_1_2_ctrl = 3
int flowlets_equivalent_10_canonicalizer_equivalent_0_pred_raw_stateless_alu_4_5_stateless_alu_1_2_immediate = 3
int flowlets_equivalent_10_canonicalizer_equivalent_0_pred_raw_stateless_alu_4_5_stateless_alu_3_2_mux3_ctrl = 3
int flowlets_equivalent_10_canonicalizer_equivalent_0_pred_raw_stateless_alu_4_5_stateless_alu_3_3_mux1_ctrl = 0
int flowlets_equivalent_10_canonicalizer_equivalent_0_pred_raw_stateless_alu_4_5_stateless_alu_3_4_mux1_ctrl = 1
int flowlets_equivalent_10_canonicalizer_equivalent_0_pred_raw_stateless_alu_4_5_stateless_alu_2_4_mux2_ctrl = 3
int flowlets_equivalent_10_canonicalizer_equivalent_0_pred_raw_stateless_alu_4_5_stateless_alu_1_0_immediate = 1
int flowlets_equivalent_10_canonicalizer_equivalent_0_pred_raw_stateless_alu_4_5_stateless_alu_2_0_mux3_ctrl = 2
int flowlets_equivalent_10_canonicalizer_equivalent_0_pred_raw_stateless_alu_4_5_stateless_alu_2_1_opcode = 5
int flowlets_equivalent_10_canonicalizer_equivalent_0_pred_raw_stateless_alu_4_5_stateless_alu_2_1_mux1_ctrl = 1
int flowlets_equivalent_10_canonicalizer_equivalent_0_pred_raw_stateless_alu_4_5_stateless_alu_2_0_mux2_ctrl = 7
int flowlets_equivalent_10_canonicalizer_equivalent_0_pred_raw_stateless_alu_4_5_stateless_alu_0_3_immediate = 1
int flowlets_equivalent_10_canonicalizer_equivalent_0_pred_raw_stateless_alu_4_5_stateful_alu_1_0_Opt_0_global = 0
int flowlets_equivalent_10_canonicalizer_equivalent_0_pred_raw_stateless_alu_4_5_stateless_alu_0_0_mux3_ctrl = 0
int flowlets_equivalent_10_canonicalizer_equivalent_0_pred_raw_stateless_alu_4_5_stateless_alu_1_0_mux1_ctrl = 3
int flowlets_equivalent_10_canonicalizer_equivalent_0_pred_raw_stateless_alu_4_5_stateless_alu_0_3_opcode = 5
int flowlets_equivalent_10_canonicalizer_equivalent_0_pred_raw_stateless_alu_4_5_output_mux_phv_1_3_ctrl = 2
int flowlets_equivalent_10_canonicalizer_equivalent_0_pred_raw_stateless_alu_4_5_output_mux_phv_3_4_ctrl = 0
int flowlets_equivalent_10_canonicalizer_equivalent_0_pred_raw_stateless_alu_4_5_stateful_alu_2_1_const_0_global = 2
int flowlets_equivalent_10_canonicalizer_equivalent_0_pred_raw_stateless_alu_4_5_stateless_alu_0_2_mux3_ctrl = 3
int flowlets_equivalent_10_canonicalizer_equivalent_0_pred_raw_stateless_alu_4_5_stateless_alu_1_4_mux1_ctrl = 1
int flowlets_equivalent_10_canonicalizer_equivalent_0_pred_raw_stateless_alu_4_5_output_mux_phv_2_3_ctrl = 2
int flowlets_equivalent_10_canonicalizer_equivalent_0_pred_raw_stateless_alu_4_5_stateful_alu_0_1_Opt_1_global = 1
int flowlets_equivalent_10_canonicalizer_equivalent_0_pred_raw_stateless_alu_4_5_stateful_alu_2_1_const_1_global = 2
int flowlets_equivalent_10_canonicalizer_equivalent_0_pred_raw_stateless_alu_4_5_stateless_alu_2_0_immediate = 0
int flowlets_equivalent_10_canonicalizer_equivalent_0_pred_raw_stateless_alu_4_5_stateless_alu_0_0_opcode = 5
int flowlets_equivalent_10_canonicalizer_equivalent_0_pred_raw_stateless_alu_4_5_stateless_alu_3_2_immediate = 2
int flowlets_equivalent_10_canonicalizer_equivalent_0_pred_raw_stateless_alu_4_5_stateless_alu_2_4_mux1_ctrl = 2
int flowlets_equivalent_10_canonicalizer_equivalent_0_pred_raw_stateless_alu_4_5_stateful_alu_1_0_Mux3_1_global = 3
int flowlets_equivalent_10_canonicalizer_equivalent_0_pred_raw_stateless_alu_4_5_stateful_alu_2_1_Opt_1_global = 0
int flowlets_equivalent_10_canonicalizer_equivalent_0_pred_raw_stateless_alu_4_5_output_mux_phv_0_4_ctrl = 3
int flowlets_equivalent_10_canonicalizer_equivalent_0_pred_raw_stateless_alu_4_5_salu_config_0_0 = 0
int flowlets_equivalent_10_canonicalizer_equivalent_0_pred_raw_stateless_alu_4_5_output_mux_phv_1_0_ctrl = 3
int flowlets_equivalent_10_canonicalizer_equivalent_0_pred_raw_stateless_alu_4_5_stateless_alu_3_0_mux3_ctrl = 5
int flowlets_equivalent_10_canonicalizer_equivalent_0_pred_raw_stateless_alu_4_5_stateful_alu_3_0_Opt_1_global = 1
int flowlets_equivalent_10_canonicalizer_equivalent_0_pred_raw_stateless_alu_4_5_stateful_alu_2_1_Mux3_0_global = 2
int flowlets_equivalent_10_canonicalizer_equivalent_0_pred_raw_stateless_alu_4_5_stateless_alu_2_2_mux2_ctrl = 0
int flowlets_equivalent_10_canonicalizer_equivalent_0_pred_raw_stateless_alu_4_5_stateful_alu_3_0_const_1_global = 2
int flowlets_equivalent_10_canonicalizer_equivalent_0_pred_raw_stateless_alu_4_5_stateless_alu_1_0_mux2_ctrl = 3
int flowlets_equivalent_10_canonicalizer_equivalent_0_pred_raw_stateless_alu_4_5_stateful_operand_mux_0_0_1_ctrl = 1
int flowlets_equivalent_10_canonicalizer_equivalent_0_pred_raw_stateless_alu_4_5_stateful_alu_0_1_Mux3_0_global = 3
int flowlets_equivalent_10_canonicalizer_equivalent_0_pred_raw_stateless_alu_4_5_stateful_operand_mux_3_0_1_ctrl = 1
int flowlets_equivalent_10_canonicalizer_equivalent_0_pred_raw_stateless_alu_4_5_stateful_alu_0_0_const_1_global = 1
int flowlets_equivalent_10_canonicalizer_equivalent_0_pred_raw_stateless_alu_4_5_stateless_alu_3_4_mux3_ctrl = 0
int flowlets_equivalent_10_canonicalizer_equivalent_0_pred_raw_stateless_alu_4_5_stateless_alu_1_2_mux2_ctrl = 4
int flowlets_equivalent_10_canonicalizer_equivalent_0_pred_raw_stateless_alu_4_5_stateless_alu_2_4_immediate = 3
int flowlets_equivalent_10_canonicalizer_equivalent_0_pred_raw_stateless_alu_4_5_stateless_alu_1_1_mux2_ctrl = 4
int flowlets_equivalent_10_canonicalizer_equivalent_0_pred_raw_stateless_alu_4_5_output_mux_phv_3_0_ctrl = 2
int flowlets_equivalent_10_canonicalizer_equivalent_0_pred_raw_stateless_alu_4_5_stateless_alu_3_1_opcode = 1
int flowlets_equivalent_10_canonicalizer_equivalent_0_pred_raw_stateless_alu_4_5_stateless_alu_2_2_immediate = 3
int flowlets_equivalent_10_canonicalizer_equivalent_0_pred_raw_stateless_alu_4_5_stateful_alu_3_1_const_1_global = 1
int flowlets_equivalent_10_canonicalizer_equivalent_0_pred_raw_stateless_alu_4_5_stateless_alu_3_3_mux2_ctrl = 2
int flowlets_equivalent_10_canonicalizer_equivalent_0_pred_raw_stateless_alu_4_5_stateful_alu_0_0_rel_op_0_global = 2
int flowlets_equivalent_10_canonicalizer_equivalent_0_pred_raw_stateless_alu_4_5_stateless_alu_3_2_mux2_ctrl = 4
int flowlets_equivalent_10_canonicalizer_equivalent_0_pred_raw_stateless_alu_4_5_stateful_alu_0_1_Opt_0_global = 1
int flowlets_equivalent_10_canonicalizer_equivalent_0_pred_raw_stateless_alu_4_5_stateful_alu_1_1_rel_op_0_global = 0
int flowlets_equivalent_10_canonicalizer_equivalent_0_pred_raw_stateless_alu_4_5_salu_config_2_0 = 1
int flowlets_equivalent_10_canonicalizer_equivalent_0_pred_raw_stateless_alu_4_5_salu_config_0_1 = 1
int flowlets_equivalent_10_canonicalizer_equivalent_0_pred_raw_stateless_alu_4_5_stateful_operand_mux_2_1_0_ctrl = 1
int flowlets_equivalent_10_canonicalizer_equivalent_0_pred_raw_stateless_alu_4_5_output_mux_phv_2_2_ctrl = 3
int flowlets_equivalent_10_canonicalizer_equivalent_0_pred_raw_stateless_alu_4_5_stateless_alu_3_1_mux3_ctrl = 3
int flowlets_equivalent_10_canonicalizer_equivalent_0_pred_raw_stateless_alu_4_5_stateful_alu_2_0_Opt_1_global = 1
int flowlets_equivalent_10_canonicalizer_equivalent_0_pred_raw_stateless_alu_4_5_stateless_alu_2_3_opcode = 5
int flowlets_equivalent_10_canonicalizer_equivalent_0_pred_raw_stateless_alu_4_5_stateless_alu_2_2_opcode = 14
int flowlets_equivalent_10_canonicalizer_equivalent_0_pred_raw_stateless_alu_4_5_stateless_alu_1_2_opcode = 3
int flowlets_equivalent_10_canonicalizer_equivalent_0_pred_raw_stateless_alu_4_5_stateless_alu_2_3_mux2_ctrl = 2
int flowlets_equivalent_10_canonicalizer_equivalent_0_pred_raw_stateless_alu_4_5_stateless_alu_0_2_immediate = 2
int flowlets_equivalent_10_canonicalizer_equivalent_0_pred_raw_stateless_alu_4_5_stateless_alu_1_3_opcode = 5
int flowlets_equivalent_10_canonicalizer_equivalent_0_pred_raw_stateless_alu_4_5_stateful_alu_3_1_Opt_0_global = 0
int flowlets_equivalent_10_canonicalizer_equivalent_0_pred_raw_stateless_alu_4_5_stateless_alu_2_0_opcode = 13
int flowlets_equivalent_10_canonicalizer_equivalent_0_pred_raw_stateless_alu_4_5_stateful_operand_mux_3_1_1_ctrl = 4
int flowlets_equivalent_10_canonicalizer_equivalent_0_pred_raw_stateless_alu_4_5_output_mux_phv_2_1_ctrl = 0
int flowlets_equivalent_10_canonicalizer_equivalent_0_pred_raw_stateless_alu_4_5_stateless_alu_2_3_mux1_ctrl = 2
int flowlets_equivalent_10_canonicalizer_equivalent_0_pred_raw_stateless_alu_4_5_stateless_alu_2_0_mux1_ctrl = 4
int flowlets_equivalent_10_canonicalizer_equivalent_0_pred_raw_stateless_alu_4_5_stateless_alu_0_2_mux1_ctrl = 2
int flowlets_equivalent_10_canonicalizer_equivalent_0_pred_raw_stateless_alu_4_5_stateful_alu_1_1_Mux3_1_global = 2
int flowlets_equivalent_10_canonicalizer_equivalent_0_pred_raw_stateless_alu_4_5_stateless_alu_2_2_mux1_ctrl = 0
int flowlets_equivalent_10_canonicalizer_equivalent_0_pred_raw_stateless_alu_4_5_stateful_operand_mux_2_0_0_ctrl = 5
int flowlets_equivalent_10_canonicalizer_equivalent_0_pred_raw_stateless_alu_4_5_stateful_alu_2_0_Mux3_1_global = 1
int flowlets_equivalent_10_canonicalizer_equivalent_0_pred_raw_stateless_alu_4_5_stateful_alu_3_0_Mux3_1_global = 1
int flowlets_equivalent_10_canonicalizer_equivalent_0_pred_raw_stateless_alu_4_5_stateless_alu_2_1_immediate = 1
int flowlets_equivalent_10_canonicalizer_equivalent_0_pred_raw_stateless_alu_4_5_stateless_alu_3_1_immediate = 3
int flowlets_equivalent_10_canonicalizer_equivalent_0_pred_raw_stateless_alu_4_5_stateless_alu_2_4_mux3_ctrl = 0
int flowlets_equivalent_10_canonicalizer_equivalent_0_pred_raw_stateless_alu_4_5_stateful_alu_1_1_const_1_global = 2
int flowlets_equivalent_10_canonicalizer_equivalent_0_pred_raw_stateless_alu_4_5_stateless_alu_0_2_mux2_ctrl = 6
int flowlets_equivalent_10_canonicalizer_equivalent_0_pred_raw_stateless_alu_4_5_stateful_alu_0_1_rel_op_0_global = 1
int flowlets_equivalent_10_canonicalizer_equivalent_0_pred_raw_stateless_alu_4_5_stateful_alu_0_0_Opt_0_global = 0
int flowlets_equivalent_10_canonicalizer_equivalent_0_pred_raw_stateless_alu_4_5_stateless_alu_2_1_mux3_ctrl = 5
int flowlets_equivalent_10_canonicalizer_equivalent_0_pred_raw_stateless_alu_4_5_salu_config_1_0 = 0
int flowlets_equivalent_10_canonicalizer_equivalent_0_pred_raw_stateless_alu_4_5_stateful_alu_3_1_Opt_1_global = 0
int flowlets_equivalent_10_canonicalizer_equivalent_0_pred_raw_stateless_alu_4_5_stateful_alu_3_1_const_0_global = 0
int flowlets_equivalent_10_canonicalizer_equivalent_0_pred_raw_stateless_alu_4_5_stateless_alu_0_1_opcode = 15
int flowlets_equivalent_10_canonicalizer_equivalent_0_pred_raw_stateless_alu_4_5_stateless_alu_3_2_opcode = 5
int flowlets_equivalent_10_canonicalizer_equivalent_0_pred_raw_stateless_alu_4_5_stateful_alu_2_1_Mux3_1_global = 1
int flowlets_equivalent_10_canonicalizer_equivalent_0_pred_raw_stateless_alu_4_5_output_mux_phv_3_1_ctrl = 3
int flowlets_equivalent_10_canonicalizer_equivalent_0_pred_raw_stateless_alu_4_5_stateful_alu_1_0_const_1_global = 1
int flowlets_equivalent_10_canonicalizer_equivalent_0_pred_raw_stateless_alu_4_5_stateless_alu_1_0_mux3_ctrl = 0
int flowlets_equivalent_10_canonicalizer_equivalent_0_pred_raw_stateless_alu_4_5_stateful_alu_3_0_Opt_0_global = 0
int flowlets_equivalent_10_canonicalizer_equivalent_0_pred_raw_stateless_alu_4_5_stateless_alu_3_3_opcode = 14
int flowlets_equivalent_10_canonicalizer_equivalent_0_pred_raw_stateless_alu_4_5_stateful_alu_0_0_Mux3_1_global = 2
int flowlets_equivalent_10_canonicalizer_equivalent_0_pred_raw_stateless_alu_4_5_stateful_alu_1_0_rel_op_0_global = 3
int flowlets_equivalent_10_canonicalizer_equivalent_0_pred_raw_stateless_alu_4_5_stateless_alu_0_4_mux2_ctrl = 5
int flowlets_equivalent_10_canonicalizer_equivalent_0_pred_raw_stateless_alu_4_5_stateful_alu_1_1_Opt_1_global = 0
int flowlets_equivalent_10_canonicalizer_equivalent_0_pred_raw_stateless_alu_4_5_stateful_operand_mux_2_1_1_ctrl = 1
int flowlets_equivalent_10_canonicalizer_equivalent_0_pred_raw_stateless_alu_4_5_stateful_alu_1_0_Mux3_0_global = 3
int flowlets_equivalent_10_canonicalizer_equivalent_0_pred_raw_stateless_alu_4_5_stateless_alu_1_0_opcode = 5
int flowlets_equivalent_10_canonicalizer_equivalent_0_pred_raw_stateless_alu_4_5_stateless_alu_3_1_mux2_ctrl = 3
int flowlets_equivalent_10_canonicalizer_equivalent_0_pred_raw_stateless_alu_4_5_stateless_alu_0_3_mux1_ctrl = 0
int flowlets_equivalent_10_canonicalizer_equivalent_0_pred_raw_stateless_alu_4_5_stateless_alu_1_4_immediate = 0
int flowlets_equivalent_10_canonicalizer_equivalent_0_pred_raw_stateless_alu_4_5_stateful_alu_2_1_rel_op_0_global = 0
int flowlets_equivalent_10_canonicalizer_equivalent_0_pred_raw_stateless_alu_4_5_stateful_alu_0_1_const_1_global = 2
int flowlets_equivalent_10_canonicalizer_equivalent_0_pred_raw_stateless_alu_4_5_stateful_operand_mux_0_0_0_ctrl = 0
int flowlets_equivalent_10_canonicalizer_equivalent_0_pred_raw_stateless_alu_4_5_stateless_alu_1_4_opcode = 1
Output left in flowlets_equivalent_10_canonicalizer_equivalent_0_pred_raw_stateless_alu_4_5.success